experiment/data/hgs-res/Vrp-Set-B-n63/Vrp-Set-B-n63-hgs/0.hgs1.vrp
NAME : 0
COMMENT : CVRP Instance
TYPE : CVRP
DIMENSION : 63
EDGE_WEIGHT_TYPE : EUC_2D
CAPACITY : 100
NODE_COORD_SECTION
1	73.0	89.0
2	97.0	22.0
3	19.0	31.0
4	23.0	95.0
5	18.0	89.0
6	60.0	94.0
7	9.0	26.0
8	71.0	7.0
9	10.0	80.0
10	27.0	64.0
11	46.0	32.0
12	26.0	0.0
13	8.0	8.0
14	63.0	101.0
15	16.0	10.0
16	30.0	69.0
17	26.0	103.0
18	20.0	0.0
19	99.0	32.0
20	16.0	33.0
21	79.0	13.0
22	18.0	30.0
23	27.0	41.0
24	34.0	4.0
25	19.0	0.0
26	12.0	33.0
27	11.0	28.0
28	101.0	0.0
29	69.0	98.0
30	69.0	102.0
31	15.0	81.0
32	26.0	90.0
33	65.0	100.0
34	14.0	29.0
35	21.0	40.0
36	10.0	29.0
37	81.0	10.0
38	53.0	37.0
39	31.0	9.0
40	21.0	36.0
41	24.0	98.0
42	15.0	14.0
43	28.0	36.0
44	19.0	0.0
45	30.0	102.0
46	81.0	15.0
47	12.0	86.0
48	30.0	65.0
49	66.0	99.0
50	17.0	89.0
51	102.0	29.0
52	16.0	31.0
53	17.0	33.0
54	32.0	8.0
55	11.0	11.0
56	61.0	102.0
57	16.0	88.0
58	29.0	9.0
59	15.0	9.0
60	14.0	85.0
61	63.0	95.0
62	29.0	32.0
63	19.0	32.0
DEMAND_SECTION
1	0
2	18
3	11
4	18
5	17
6	21
7	6
8	12
9	6
10	21
11	14
12	2
13	5
14	12
15	23
16	23
17	19
18	18
19	8
20	21
21	7
22	19
23	18
24	7
25	6
26	12
27	21
28	6
29	21
30	20
31	18
32	6
33	20
34	20
35	23
36	4
37	21
38	4
39	6
40	9
41	21
42	5
43	20
44	11
45	16
46	48
47	2
48	15
49	15
50	22
51	25
52	23
53	5
54	24
55	11
56	24
57	20
58	21
59	10
60	24
61	3
62	9
63	5
DEPOT_SECTION
1
-1
EOF
