experiment/data/hgs-res/Vrp-Set-B-n63/Vrp-Set-B-n63-hgs/0.hgs1.log
=========== Algorithm Parameters =================
---- nbGranular        is set to 20
---- mu                is set to 25
---- lambda            is set to 40
---- nbElite           is set to 4
---- nbClose           is set to 5
---- targetFeasible    is set to 0.2
---- seed              is set to 1234
---- nbIter            is set to 20000
---- timeLimit         is set to 0
---- useSwapStar       is set to 1
==================================================
----- READING INSTANCE: baseline_results/cvrp_hgs/Vrp-Set-B-n63/Vrp-Set-B-n63-hgs/0.hgs1.vrp
----- FLEET SIZE WAS NOT SPECIFIED: DEFAULT INITIALIZATION TO 15 VEHICLES
----- INSTANCE SUCCESSFULLY LOADED WITH 62 CLIENTS AND 15 VEHICLES
----- BUILDING INITIAL POPULATION
----- STARTING GENETIC ALGORITHM
It      0      2 | T(s) 0.10 | Feas 45 1507.38 1540.58 | Inf 56 1498.99 1516.06 | Div 0.41 0.34 | Feas 0.04 1.00 | Pen 3.19 0.85
It    500    378 | T(s) 0.33 | Feas 52 1499.10 1506.11 | Inf 28 1498.04 1501.67 | Div 0.24 0.28 | Feas 0.21 1.00 | Pen 2.71 0.38
It   1000    878 | T(s) 0.53 | Feas 31 1499.10 1507.48 | Inf 42 1496.75 1498.09 | Div 0.31 0.22 | Feas 0.24 1.00 | Pen 2.35 0.17
It   1500   1378 | T(s) 0.76 | Feas 60 1499.10 1502.52 | Inf 25 1496.75 1504.53 | Div 0.20 0.36 | Feas 0.21 1.00 | Pen 2.35 0.10
It   2000   1878 | T(s) 0.98 | Feas 47 1499.10 1503.16 | Inf 48 1496.99 1508.39 | Div 0.23 0.32 | Feas 0.14 1.00 | Pen 2.39 0.10
It   2500   2378 | T(s) 1.23 | Feas 26 1499.10 1512.49 | Inf 44 1497.23 1513.35 | Div 0.36 0.34 | Feas 0.13 1.00 | Pen 2.44 0.10
It   3000   2878 | T(s) 1.46 | Feas 65 1499.10 1502.25 | Inf 64 1489.98 1493.21 | Div 0.18 0.26 | Feas 0.18 1.00 | Pen 2.08 0.10
It   3500   3378 | T(s) 1.71 | Feas 53 1499.10 1503.55 | Inf 49 1497.72 1509.00 | Div 0.23 0.32 | Feas 0.11 1.00 | Pen 2.54 0.10
It   4000   3878 | T(s) 1.93 | Feas 38 1499.10 1504.72 | Inf 25 1493.39 1502.34 | Div 0.27 0.40 | Feas 0.26 1.00 | Pen 2.16 0.10
It   4500   4378 | T(s) 2.15 | Feas 61 1499.10 1501.98 | Inf 52 1495.03 1497.64 | Div 0.18 0.23 | Feas 0.27 1.00 | Pen 2.20 0.10
It   5000   4878 | T(s) 2.40 | Feas 47 1499.10 1502.37 | Inf 45 1496.25 1498.86 | Div 0.20 0.31 | Feas 0.18 1.00 | Pen 2.25 0.10
It   5500   5378 | T(s) 2.64 | Feas 61 1499.10 1501.69 | Inf 32 1498.41 1511.76 | Div 0.19 0.37 | Feas 0.14 1.00 | Pen 2.29 0.10
It   6000   5878 | T(s) 2.87 | Feas 46 1499.10 1502.88 | Inf 64 1498.08 1498.31 | Div 0.21 0.12 | Feas 0.23 1.00 | Pen 2.75 0.10
It   6500   6378 | T(s) 3.09 | Feas 42 1499.10 1502.69 | Inf 32 1497.18 1501.04 | Div 0.21 0.29 | Feas 0.32 1.00 | Pen 2.43 0.10
It   7000   6878 | T(s) 3.31 | Feas 59 1499.10 1500.87 | Inf 56 1497.42 1498.95 | Div 0.16 0.23 | Feas 0.25 1.00 | Pen 2.48 0.10
It   7500   7378 | T(s) 3.55 | Feas 49 1499.10 1502.47 | Inf 31 1497.67 1513.32 | Div 0.21 0.33 | Feas 0.15 1.00 | Pen 2.53 0.10
It   8000   7878 | T(s) 3.78 | Feas 63 1499.10 1502.19 | Inf 60 1493.05 1494.52 | Div 0.19 0.21 | Feas 0.16 1.00 | Pen 2.15 0.10
It   8500   8378 | T(s) 4.01 | Feas 47 1499.10 1503.87 | Inf 35 1469.51 1484.49 | Div 0.25 0.36 | Feas 0.19 1.00 | Pen 1.86 0.10
It   9000   8878 | T(s) 4.26 | Feas 31 1499.10 1502.88 | Inf 28 1478.79 1493.09 | Div 0.23 0.38 | Feas 0.31 1.00 | Pen 1.90 0.10
It   9500   9378 | T(s) 4.49 | Feas 53 1499.10 1501.10 | Inf 57 1482.07 1489.96 | Div 0.16 0.29 | Feas 0.26 1.00 | Pen 1.94 0.10
It  10000   9878 | T(s) 4.74 | Feas 30 1499.10 1505.08 | Inf 59 1496.66 1498.59 | Div 0.27 0.23 | Feas 0.23 1.00 | Pen 2.33 0.10
It  10500  10378 | T(s) 4.96 | Feas 47 1499.10 1501.87 | Inf 37 1488.02 1494.99 | Div 0.19 0.30 | Feas 0.29 1.00 | Pen 2.02 0.10
It  11000  10878 | T(s) 5.20 | Feas 45 1499.10 1503.03 | Inf 61 1458.38 1476.34 | Div 0.23 0.26 | Feas 0.27 1.00 | Pen 1.75 0.10
It  11500  11378 | T(s) 5.46 | Feas 63 1499.10 1501.33 | Inf 28 1497.87 1504.18 | Div 0.17 0.31 | Feas 0.26 1.00 | Pen 2.57 0.10
It  12000  11878 | T(s) 5.68 | Feas 48 1499.10 1501.77 | Inf 40 1497.67 1511.63 | Div 0.19 0.30 | Feas 0.14 1.00 | Pen 2.23 0.10
It  12500  12378 | T(s) 5.92 | Feas 33 1499.10 1507.14 | Inf 27 1496.38 1505.04 | Div 0.31 0.42 | Feas 0.18 1.00 | Pen 2.27 0.10
It  13000  12878 | T(s) 6.15 | Feas 49 1499.10 1502.41 | Inf 61 1496.38 1497.40 | Div 0.20 0.22 | Feas 0.16 1.00 | Pen 2.27 0.10
It  13500  13378 | T(s) 6.39 | Feas 64 1499.10 1503.54 | Inf 49 1496.38 1499.31 | Div 0.22 0.28 | Feas 0.16 1.00 | Pen 2.27 0.10
It  14000  13878 | T(s) 6.61 | Feas 61 1499.10 1500.38 | Inf 51 1476.20 1489.01 | Div 0.14 0.27 | Feas 0.37 1.00 | Pen 1.93 0.10
It  14500  14378 | T(s) 6.86 | Feas 35 1499.10 1509.96 | Inf 48 1498.17 1510.76 | Div 0.34 0.29 | Feas 0.06 1.00 | Pen 2.37 0.10
It  15000  14878 | T(s) 7.10 | Feas 60 1499.10 1504.43 | Inf 34 1487.52 1502.67 | Div 0.27 0.36 | Feas 0.11 1.00 | Pen 2.05 0.10
It  15500  15378 | T(s) 7.35 | Feas 37 1499.10 1506.63 | Inf 31 1490.79 1494.88 | Div 0.30 0.34 | Feas 0.17 1.00 | Pen 2.09 0.10
It  16000  15878 | T(s) 7.59 | Feas 29 1499.10 1506.39 | Inf 25 1492.38 1504.92 | Div 0.30 0.42 | Feas 0.21 1.00 | Pen 2.13 0.10
It  16500  16378 | T(s) 7.81 | Feas 58 1499.10 1501.73 | Inf 43 1494.00 1497.25 | Div 0.19 0.27 | Feas 0.31 1.00 | Pen 2.18 0.10
It  17000  16878 | T(s) 8.06 | Feas 38 1499.10 1505.76 | Inf 47 1498.33 1507.81 | Div 0.28 0.30 | Feas 0.09 1.00 | Pen 2.66 0.10
It  17500  17378 | T(s) 8.28 | Feas 25 1499.10 1511.75 | Inf 64 1496.33 1498.02 | Div 0.36 0.25 | Feas 0.18 1.00 | Pen 2.26 0.10
It  18000  17878 | T(s) 8.51 | Feas 38 1499.10 1503.75 | Inf 49 1496.56 1498.05 | Div 0.24 0.23 | Feas 0.18 1.00 | Pen 2.31 0.10
It  18500  18378 | T(s) 8.76 | Feas 48 1499.10 1504.48 | Inf 32 1487.39 1493.89 | Div 0.26 0.37 | Feas 0.20 1.00 | Pen 2.00 0.10
It  19000  18878 | T(s) 8.98 | Feas 63 1499.10 1501.24 | Inf 63 1497.27 1499.07 | Div 0.17 0.21 | Feas 0.21 1.00 | Pen 2.45 0.10
It  19500  19378 | T(s) 9.22 | Feas 30 1499.10 1507.77 | Inf 43 1492.05 1496.93 | Div 0.33 0.29 | Feas 0.32 1.00 | Pen 2.12 0.10
It  20000  19878 | T(s) 9.46 | Feas 48 1499.10 1503.11 | Inf 42 1498.02 1506.77 | Div 0.22 0.29 | Feas 0.12 1.00 | Pen 2.60 0.10
----- GENETIC ALGORITHM FINISHED AFTER 20124 ITERATIONS. TIME SPENT: 9.50385
----- WRITING BEST SOLUTION IN : baseline_results/cvrp_hgs/Vrp-Set-B-n63/Vrp-Set-B-n63-hgs/0.hgs1.tour
