experiment/data/hgs-res/Vrp-Set-B-n63/Vrp-Set-B-n63-hgs/0.hgs1.tour
Route #1: 31 49 56 59 46 8 30
Route #2: 22 34 9 47 15
Route #3: 42 62 2 33 26 6 35 25
Route #4: 10 61 21 51 19 52 39
Route #5: 23 11 17 24 43 12 54 58 14 41
Route #6: 18 1 20 7 53 38 57 37
Route #7: 45 36 27 50
Route #8: 28 29
Route #9: 5 55 13 32 48
Route #10: 60 44 16 40 3 4
Cost 1499.1
